22404.4 0
36 45 97 15 68 41 59 48 63 6 85 94 46 30 82 49 23 18 9 53 42 98 67 78 95 61 89 76 14 29 26 51 84 72 17 79 90 8 52 22 38 70 19 25 40 43 44 35 54 92 5 87 20 99 11 32 21 88 77 37 47 7 83 39 74 66 57 71 24 3 55 96 80 16 4 91 69 13 28 62 64 34 50 2 73 81 56 31 27 58 75 10 86 65 0 12 93 33 60 1 
